nTasks=4;
nThreads=11;
nCPUs=3;
nCores=10;
rh=[240.652709769 232.07942927 896.798960027 968.16988977 722.174269986 617.581672379 956.600519107 253.068025208 909.049881543 814.820006992 346.089452507];
rc=[520.842899906 518.950170926 774.523371036];
CK=[
	[1 1 1 1 0 0 0 0 0 0]
	[0 0 0 0 1 1 1 1 0 0]
	[0 0 0 0 0 0 0 0 1 1]
];
TH=[
	[1 1 1 0 0 0 0 0 0 0 0]
	[0 0 0 1 1 0 0 0 0 0 0]
	[0 0 0 0 0 1 1 0 0 0 0]
	[0 0 0 0 0 0 0 1 1 1 1]
];
